# Solution for model GasLib-40
# Objective value = 9.7265697731083378e+01
loadshed[innode_1] 0
loadshed[innode_2] 0
loadshed[innode_3] 0
loadshed[innode_4] 0
loadshed[innode_5] 0
loadshed[innode_6] 0
loadshed[innode_7] 0
loadshed[innode_8] 0
loadshed[source_1] 7.4916752596887348e-02
loadshed[source_2] 2.1914399237811588e-01
loadshed[source_3] 3.2119339397843649e-01
loadshed[sink_1] 1
loadshed[sink_2] 0
loadshed[sink_3] 0
loadshed[sink_4] 0
loadshed[sink_5] 0
loadshed[sink_6] 0
loadshed[sink_7] 0
loadshed[sink_8] 0
loadshed[sink_9] 1
loadshed[sink_10] 0
loadshed[sink_11] 0
loadshed[sink_12] 1
loadshed[sink_13] 0
loadshed[sink_14] 0
loadshed[sink_15] 0
loadshed[sink_16] 0
loadshed[sink_17] 0
loadshed[sink_18] 4.4868560477607444e-01
loadshed[sink_19] 0
loadshed[sink_20] 0
loadshed[sink_21] 1
loadshed[sink_22] 5.3579532255840356e-01
loadshed[sink_23] 0
loadshed[sink_24] 9.6297574921584328e-01
loadshed[sink_25] 0
loadshed[sink_26] 0
loadshed[sink_27] 0
loadshed[sink_28] 0
loadshed[sink_29] 0
flow[source_1,sink_3] 1.4624666754952679e+02
flow[innode_1,sink_16] 1.6354166666666970e+01
flow[innode_6,sink_13] 7.1664417633281339e+00
flow[sink_13,sink_14] -9.1877249033385340e+00
flow[sink_14,sink_10] -2.5541891570005202e+01
flow[sink_25,sink_26] 0
flow[sink_26,sink_9] 0
flow[sink_9,sink_18] 0
flow[sink_26,sink_4] -1.6354166666667254e+01
flow[sink_4,sink_20] -1.3169263560225093e+02
flow[sink_18,sink_6] -9.0162875052232536e+00
flow[sink_25,innode_8] -1.1353833421619042e+02
flow[sink_6,sink_7] -3.2962134834216016e+01
flow[sink_6,sink_22] 7.5916806623261088e+00
flow[sink_7,sink_24] 6.0550076803256347e-01
flow[sink_22,sink_1] 0
flow[sink_24,sink_21] 0
flow[sink_21,sink_12] 0
flow[sink_7,sink_5] -4.9921802268915251e+01
flow[sink_5,sink_17] -6.6275968935581915e+01
flow[sink_17,sink_4] -9.8984302268916849e+01
flow[sink_17,sink_8] 1.6354166666668334e+01
flow[sink_3,sink_23] 16.3541666666697
flow[sink_8,sink_20] 0
flow[sink_25,sink_20] 1.4804680226891759e+02
flow[sink_25,sink_15] -5.8029076482722324e+01
flow[sink_15,sink_29] -4.3897093919652754e+01
flow[sink_29,sink_28] 1.6354166666667879e+01
flow[sink_29,sink_2] 46.8403158964029
flow[sink_2,sink_15] 3.0486149229736235e+01
flow[sink_29,innode_7] -1.2344574314939021e+02
flow[innode_4,sink_19] 4.1105689880043009e+01
flow[sink_19,innode_3] 3.6406628181196226e+01
flow[innode_4,innode_5] 6.6207035023296513e+01
flow[sink_27,innode_5] -6.6207035023296513e+01
flow[sink_27,sink_19] 4.9852868356629841e+01
flow[sink_10,sink_11] 3.2708333333333641e+01
flow[sink_10,innode_2] -3.8197763388809420e+01
flow[sink_10,innode_3] -3.6406628181196226e+01
flow[innode_6,sink_25] -7.1664417633281339e+00
flow[sink_11,innode_1] 1.6354166666666970e+01
flow[sink_19,innode_2] 3.8197763388809420e+01
flow[source_3,innode_4] 1.0731272490333953e+02
flow[source_2,innode_7] 1.2344574314939021e+02
flow[sink_3,innode_8] 1.1353833421619042e+02
pressure[innode_1] 7.7177342900432890e+01
pressure[innode_2] 7.9347953765064688e+01
pressure[innode_3] 7.9267335409560758e+01
pressure[innode_4] 81.01325
pressure[innode_5] 80.9677093102032
pressure[innode_6] 7.6144013780801970e+01
pressure[innode_7] 81.01325
pressure[innode_8] 8.0524403258633939e+01
pressure[source_1] 81.01325
pressure[source_2] 81.01325
pressure[source_3] 81.01325
pressure[sink_1] 1.0132500000000002e+00
pressure[sink_2] 7.6525041904738359e+01
pressure[sink_3] 8.0524403258633939e+01
pressure[sink_4] 3.1188524708720923e+01
pressure[sink_5] 2.2468590437412651e+01
pressure[sink_6] 1.2540117214051978e+00
pressure[sink_7] 1.7065032628411867e+00
pressure[sink_8] 2.6788585871236847e+01
pressure[sink_9] 1.0132500000000002e+00
pressure[sink_10] 7.7329044208036436e+01
pressure[sink_11] 7.7177342900432890e+01
pressure[sink_12] 1.01325
pressure[sink_13] 7.6104506384984418e+01
pressure[sink_14] 7.6120948601320052e+01
pressure[sink_15] 7.6425511346542336e+01
pressure[sink_16] 7.6155693065615210e+01
pressure[sink_17] 2.7405671066650473e+01
pressure[sink_18] 1.0132499999999509e+00
pressure[sink_19] 7.9347953765064688e+01
pressure[sink_20] 4.0850108793837862e+01
pressure[sink_21] 1.01325
pressure[sink_22] 1.0132500000000002e+00
pressure[sink_23] 8.0359685246974152e+01
pressure[sink_24] 1.01325
pressure[sink_25] 7.6144013780801970e+01
pressure[sink_26] 2.9109213632247986e+01
pressure[sink_27] 8.0418313256956353e+01
pressure[sink_28] 7.7416277695279817e+01
pressure[sink_29] 77.711559968897
interdiction[source_1,sink_3] 0
interdiction[innode_1,sink_16] 0
interdiction[innode_6,sink_13] 0
interdiction[sink_13,sink_14] 0
interdiction[sink_14,sink_10] 0
interdiction[sink_25,sink_26] 1
interdiction[sink_26,sink_9] 1
interdiction[sink_9,sink_18] 0
interdiction[sink_26,sink_4] 0
interdiction[sink_4,sink_20] 0
interdiction[sink_18,sink_6] 0
interdiction[sink_25,innode_8] 0
interdiction[sink_6,sink_7] 0
interdiction[sink_6,sink_22] 0
interdiction[sink_7,sink_24] 0
interdiction[sink_22,sink_1] 0
interdiction[sink_24,sink_21] 0
interdiction[sink_21,sink_12] 0
interdiction[sink_7,sink_5] 0
interdiction[sink_5,sink_17] 0
interdiction[sink_17,sink_4] 0
interdiction[sink_17,sink_8] 0
interdiction[sink_3,sink_23] 0
interdiction[sink_8,sink_20] 1
interdiction[sink_25,sink_20] 0
interdiction[sink_25,sink_15] 0
interdiction[sink_15,sink_29] 0
interdiction[sink_29,sink_28] 0
interdiction[sink_29,sink_2] 0
interdiction[sink_2,sink_15] 0
interdiction[sink_29,innode_7] 0
interdiction[innode_4,sink_19] 0
interdiction[sink_19,innode_3] 0
interdiction[innode_4,innode_5] 0
interdiction[sink_27,innode_5] 0
interdiction[sink_27,sink_19] 0
interdiction[sink_10,sink_11] 0
interdiction[sink_10,innode_2] 0
interdiction[sink_10,innode_3] 0
interdiction[innode_6,sink_25] 0
interdiction[sink_11,innode_1] 0
interdiction[sink_19,innode_2] 0
interdiction[source_3,innode_4] 0
interdiction[source_2,innode_7] 0
interdiction[sink_3,innode_8] 0
WCcheckFlow[source_1,sink_3] 39
WCcheckFlow[innode_1,sink_16] 1
WCcheckFlow[innode_6,sink_13] 13
WCcheckFlow[sink_13,sink_14] 12
WCcheckFlow[sink_14,sink_10] 11
WCcheckFlow[sink_25,sink_26] 0
WCcheckFlow[sink_26,sink_9] 0
WCcheckFlow[sink_9,sink_18] -1
WCcheckFlow[sink_26,sink_4] -1
WCcheckFlow[sink_4,sink_20] -14
WCcheckFlow[sink_18,sink_6] -2
WCcheckFlow[sink_25,innode_8] -36
WCcheckFlow[sink_6,sink_7] -5
WCcheckFlow[sink_6,sink_22] 2
WCcheckFlow[sink_7,sink_24] 3
WCcheckFlow[sink_22,sink_1] 1
WCcheckFlow[sink_24,sink_21] 2
WCcheckFlow[sink_21,sink_12] 1
WCcheckFlow[sink_7,sink_5] -9
WCcheckFlow[sink_5,sink_17] -10
WCcheckFlow[sink_17,sink_4] -12
WCcheckFlow[sink_17,sink_8] 1
WCcheckFlow[sink_3,sink_23] 1
WCcheckFlow[sink_8,sink_20] 0
WCcheckFlow[sink_25,sink_20] 15
WCcheckFlow[sink_25,sink_15] 6
WCcheckFlow[sink_15,sink_29] 5
WCcheckFlow[sink_29,sink_28] 1
WCcheckFlow[sink_29,sink_2] 1
WCcheckFlow[sink_2,sink_15] 0
WCcheckFlow[sink_29,innode_7] 2
WCcheckFlow[innode_4,sink_19] -4
WCcheckFlow[sink_19,innode_3] -5
WCcheckFlow[innode_4,innode_5] 2
WCcheckFlow[sink_27,innode_5] -1
WCcheckFlow[sink_27,sink_19] 0
WCcheckFlow[sink_10,sink_11] 3
WCcheckFlow[sink_10,innode_2] 1
WCcheckFlow[sink_10,innode_3] 6
WCcheckFlow[innode_6,sink_25] -14
WCcheckFlow[sink_11,innode_1] 2
WCcheckFlow[sink_19,innode_2] 0
WCcheckFlow[source_3,innode_4] -1
WCcheckFlow[source_2,innode_7] -1
WCcheckFlow[sink_3,innode_8] 37
